159
1000
730
88
53
319
1
414
198
348
608
165
16
273
177
570
342
272
215
550
232
144
12
671
89
254
510
260
150
422
191
492
435
160
101
336
747
103
349
268
139
194
44
77
642
629
299
677
306
139
319
117
68
79
233
296
189
186
541
562
26
297
139
322
676
602
66
727
100
483
589
415
55
419
305
13
640
204
406
554
418
652
111
184
123
354
371
402
81
324
565
343
323
21
585
61
15
80
79
278
55
318
749
590
110
674
215
744
304
586
36
345
52
404
448
5
319
29
133
666
147
394
635
189
196
27
222
94
62
55
80
366
324
397
9
466
344
360
124
42
13
217
613
273
18
135
357
93
316
357
163
369
37
124
339
89
365
92
5
148
153
